%%%mzn-stat: initTime=0.038072812
%%%mzn-stat: objective=946
%%%mzn-stat: nodes=1109
%%%mzn-stat: restarts=0
%%%mzn-stat: peakDepth=162
%%%mzn-stat: solveTime=0.098640671
%%%mzn-stat: variables=455
%%%mzn-stat: propagators=281
%%%mzn-stat: failures=874
%%%mzn-stat: propagations=55178
%%%mzn-stat: nogoods=874
%%%mzn-stat: AverageConflictSize=4.38558352402746
%%%mzn-stat: NumUnitNogoodsLearned=781
%%%mzn-stat: AverageLearnedNogoodLength=3.1155606407322654
%%%mzn-stat: AverageBacktrackAmount=0
%%%mzn-stat: AverageLbd=2.0034324942791764
%%%mzn-stat-end
maxleg = 946;
succ = array1d(1..50,[48, 12, 45, 9, 3, 11, 26, 4, 6, 15, 49, 13, 23, 10, 38, 22, 8, 29, 14, 42, 33, 41, 40, 35, 30, 16, 18, 36, 44, 50, 46, 34, 2, 47, 43, 1, 21, 7, 17, 25, 27, 28, 20, 37, 32, 24, 39, 5, 19, 31]);
% time elapsed: 4.83 s
----------
==========
% time elapsed: 4.83 s
%%%mzn-stat: initTime=0.038072812
%%%mzn-stat: objective=946
%%%mzn-stat: nodes=1109
%%%mzn-stat: restarts=0
%%%mzn-stat: peakDepth=162
%%%mzn-stat: solveTime=0.098649439
%%%mzn-stat: variables=455
%%%mzn-stat: propagators=281
%%%mzn-stat: failures=874
%%%mzn-stat: propagations=55178
%%%mzn-stat: nogoods=874
%%%mzn-stat: AverageConflictSize=4.38558352402746
%%%mzn-stat: NumUnitNogoodsLearned=781
%%%mzn-stat: AverageLearnedNogoodLength=3.1155606407322654
%%%mzn-stat: AverageBacktrackAmount=0
%%%mzn-stat: AverageLbd=2.0034324942791764
%%%mzn-stat-end
